40436 39275 
39928 39723 
40358 39393 
39876 39776 
39824 39845 
40452 39166 
40603 38892 
41104 37940 
41080 38154 
40731 38694 
40678 38886 
40587 39001 
40235 39472 
39960 39659 
40384 39344 
40121 39541 
39968 39620 
40148 39525 
39653 39910 
40077 39595 
39446 40106 
39517 40096 
40921 38538 
41072 38264 
40916 38657 
41144 37848 
41171 37832 
41293 37325 
41221 37741 
41320 37309 
41431 36689 
41404 36705 
41483 36413 
40535 39070 
41241 37394 
41268 37378 
41332 37121 
41582 35981 
41555 35997 
41223 37556 
41372 37033 
41596 35518 
41623 35502 
41485 36138 
41512 36122 
39601 39979 
38995 40181 
39320 40165 
38958 40294 
